NAME: GRASP_27_9
TYPE: TSP
COMMENT: line_27_9
DIMENSION: 27
EDGE_WEIGHT_TYPE: EUC_2D
NODE_COORD_SECTION
1 2119 3976
2 4671 1512
3 722 1125
4 3277 2267
5 2823 1804
6 925 1621
7 1536 4709
8 966 1598
9 1926 4356
10 2579 158
11 1894 3569
12 2242 4958
13 1722 378
14 42 3504
15 1570 1765
16 851 539
17 3921 4031
18 3388 3665
19 3585 2026
20 2835 1296
21 1576 2062
22 144 1809
23 4517 1012
24 1270 1608
25 4330 3126
26 4186 3518
27 2096 3421
